data/processed_heuristic-threshold/instances/1/8/ds_607_courier_3853/pairwise.tsp
NAME: ds_607_courier_3853
TYPE: TSP
COMMENT: nil
DIMENSION: 9
EDGE_WEIGHT_TYPE: EXPLICIT
EDGE_WEIGHT_FORMAT: FULL_MATRIX
EDGE_WEIGHT_SECTION
9999 8567 8317 8548 8486 8423 8551 9939 9951 
8567 9999 253 19 192 191 274 1540 1549 
8317 253 9999 234 272 197 390 1744 1754 
8548 19 234 9999 187 180 277 1555 1564 
8486 192 272 187 9999 78 119 1700 1709 
8423 191 197 180 78 9999 194 1727 1737 
8551 274 390 277 119 194 9999 1706 1715 
9939 1540 1744 1555 1700 1727 1706 9999 12 
9951 1549 1754 1564 1709 1737 1715 12 9999 
