data/processed_heuristic-threshold/instances/1/8/ds_607_courier_3853/pairwise.sol
9
0 5 4 6 7 8 1 3 2 
